p cnf 22 52
-6 -1 0
-6 -2 0
1 2 6 0
-7 6 0
-7 5 0
-6 -5 7 0
-1 8 0
-2 8 0
-8 1 2 0
-9 8 0
-9 -1 0
-8 1 9 0
-10 9 0
-10 4 0
-9 -4 10 0
-11 8 0
-11 1 0
-8 -1 11 0
-12 11 0
-12 3 0
-11 -3 12 0
-7 13 0
-10 13 0
-13 7 10 0
-12 14 0
-13 14 0
-14 12 13 0
-15 1 0
-15 3 0
-1 -3 15 0
-16 -1 0
-16 2 0
1 -2 16 0
-17 16 0
-17 4 0
-16 -4 17 0
-17 18 0
-15 18 0
-18 17 15 0
-7 19 0
-18 19 0
-19 7 18 0
14 20 0
19 20 0
-20 -14 -19 0
-14 21 0
-19 21 0
-21 14 19 0
-22 20 0
-22 21 0
-20 -21 22 0
